set ITEM := 1 2 3 4 5 6 7 8 9 10 11 12 13 14 15 16 17 18 19 20;

param: valor peso := 
1 44 92
2 46 4
3 90 43
4 72 83
5 91 84
6 40 68
7 75 92
8 35 82
9 8 6
10 54 44
11 78 32
12 40 18
13 77 56
14 15 83
15 61 25
16 17 96
17 75 70
18 29 48
19 75 14
20 63 58
;
param capacidade	:= 878 ;